width = 24;

n_circuits = 18;

circuit_x = array1d(1..18, [3, 3, 3, 3, 3, 3, 3, 3, 3, 3, 3, 3, 4, 4, 4, 4, 5, 5]);

circuit_y = array1d(1..18, [3, 4, 5, 6, 7, 8, 9, 10, 12, 14, 18, 24, 3, 4, 5, 12,
    8, 16]);

opt_height = 24;

max_y = 24;

